c This is an instance of the exact track of PACE 2020 Challenge, see https://pacechallenge.org/2020/ 
c TYPE: biology 
c ORIGIN: http://www.genome.jp/kegg/ 
c DESCRIPTION: This is a graph derived from a biological pathway map. The nodes are genes (also representing their associated proteins), enzymes, or chemical compounds, and there is an edge between two nodes if they influence each other (such as a gene modifying the expression of another gene) or take part in a common chemical reaction. This graph is a connected part of the map "ray00051 Fructose and mannose metabolism - Rousettus aegyptiacus (Egyptian rousette)". 
p tdp 61 151
17 4
17 37
17 52
17 53
17 5
17 26
17 8
17 11
17 7
17 12
17 10
58 33
58 19
58 57
58 11
18 4
18 37
18 29
18 5
18 8
18 11
18 55
18 56
18 7
18 12
18 9
21 7
47 15
47 48
47 7
54 53
54 55
33 11
24 16
24 8
24 49
24 25
28 9
4 16
4 37
4 14
4 19
4 2
4 5
4 8
4 11
4 40
4 15
4 7
4 13
4 12
4 9
4 10
16 37
16 5
16 50
16 11
16 49
16 7
16 12
16 9
16 10
37 14
37 19
37 3
37 41
37 38
37 15
37 1
29 55
29 30
29 10
14 8
14 11
14 44
14 7
14 12
14 9
14 10
14 43
19 5
19 8
19 59
19 7
19 12
19 9
19 10
2 3
2 40
2 1
52 26
52 51
52 9
53 9
45 44
45 46
23 8
20 5
3 5
3 8
3 11
3 40
3 7
3 12
3 9
3 10
5 15
5 44
5 6
5 13
5 43
26 27
26 9
8 50
8 15
8 49
8 13
8 25
36 39
36 12
36 61
31 10
50 51
59 11
59 60
57 56
11 15
11 34
11 13
11 32
41 13
41 42
60 61
15 12
15 9
15 46
15 10
48 49
27 9
55 10
35 12
56 10
7 22
7 13
7 46
13 12
13 9
13 10
12 61
30 10
43 42
